NAME: ant9
TYPE: TSP
COMMENT: 21-city problem (Groetschel)
DIMENSION: 9
EDGE_WEIGHT_TYPE: EXPLICIT
EDGE_WEIGHT_FORMAT: LOWER_DIAG_ROW 
EDGE_WEIGHT_SECTION
 0 
 2  0 
10  2  0 
 1 20  1  0
20 20 14 20  0 
 1 20 20 20  2  0 
20 20 20 20 20  3  0 
 3 20 20 20 20 20 10  0 
20 20 20 20 20 20  2  4  0          
EOF      